NAME : rnd47_20.tsp
TYPE : TSP
DIMENSION : 20
EDGE_WEIGHT_TYPE : EUC_2D
NODE_COORD_SECTION
0 469 961
1 172 480
2 915 674
3 882 413
4 563 806
5 383 71
6 766 845
7 301 355
8 45 514
9 464 337
10 270 786
11 651 770
12 619 754
13 399 427
14 388 863
15 665 107
16 236 166
17 920 334
18 59 785
19 939 986
